NAME: square4
TYPE: VRP
COMMENT: Square4
DIMENSION: 5
DEPOT: 1
NUMBER_OF_VEHICLES: 10
NUMBER_OF_OPERATORS: 10
SETUP_TIME: 900
DRONE_SPEED: 15
DRONE_CAMERA_RADIUS: 10
EDGE_WEIGHT_TYPE : EUC_2D
NODE_COORD_SECTION
1 0 50
2 0 0
3 0 1000
4 1000 1000
5 1000 0
EOF
